experiment/data/hgs-res/Vrp-Set-X-n219/Vrp-Set-X-n219-hgs/0.hgs1.vrp
NAME : 0
COMMENT : CVRP Instance
TYPE : CVRP
DIMENSION : 219
EDGE_WEIGHT_TYPE : EUC_2D
CAPACITY : 3
NODE_COORD_SECTION
1	0.0	0.0
2	18.0	761.0
3	835.0	397.0
4	299.0	16.0
5	31.0	168.0
6	142.0	257.0
7	242.0	984.0
8	612.0	357.0
9	663.0	812.0
10	105.0	188.0
11	487.0	636.0
12	993.0	703.0
13	672.0	148.0
14	506.0	259.0
15	953.0	706.0
16	888.0	203.0
17	107.0	534.0
18	772.0	692.0
19	475.0	182.0
20	828.0	775.0
21	719.0	220.0
22	655.0	722.0
23	844.0	197.0
24	918.0	600.0
25	460.0	844.0
26	739.0	102.0
27	301.0	523.0
28	341.0	627.0
29	989.0	936.0
30	935.0	602.0
31	44.0	72.0
32	861.0	67.0
33	163.0	416.0
34	981.0	503.0
35	722.0	397.0
36	317.0	903.0
37	547.0	95.0
38	944.0	106.0
39	935.0	192.0
40	128.0	376.0
41	908.0	176.0
42	720.0	226.0
43	738.0	793.0
44	791.0	498.0
45	712.0	751.0
46	530.0	693.0
47	141.0	673.0
48	380.0	544.0
49	634.0	301.0
50	427.0	853.0
51	606.0	949.0
52	47.0	557.0
53	48.0	202.0
54	791.0	67.0
55	546.0	876.0
56	526.0	842.0
57	535.0	216.0
58	828.0	214.0
59	829.0	352.0
60	623.0	473.0
61	374.0	1000.0
62	74.0	187.0
63	275.0	415.0
64	726.0	789.0
65	51.0	597.0
66	894.0	395.0
67	159.0	743.0
68	301.0	893.0
69	755.0	946.0
70	978.0	261.0
71	709.0	153.0
72	391.0	153.0
73	876.0	370.0
74	846.0	725.0
75	604.0	107.0
76	117.0	709.0
77	507.0	89.0
78	348.0	744.0
79	476.0	204.0
80	181.0	957.0
81	948.0	710.0
82	158.0	788.0
83	414.0	685.0
84	358.0	66.0
85	196.0	732.0
86	283.0	343.0
87	456.0	931.0
88	5.0	468.0
89	459.0	43.0
90	555.0	414.0
91	94.0	964.0
92	558.0	360.0
93	641.0	424.0
94	132.0	16.0
95	777.0	947.0
96	25.0	205.0
97	852.0	45.0
98	5.0	686.0
99	400.0	682.0
100	501.0	234.0
101	905.0	968.0
102	492.0	971.0
103	817.0	114.0
104	651.0	941.0
105	817.0	643.0
106	735.0	937.0
107	333.0	829.0
108	223.0	584.0
109	306.0	412.0
110	209.0	663.0
111	206.0	549.0
112	542.0	691.0
113	296.0	10.0
114	215.0	747.0
115	148.0	641.0
116	9.0	553.0
117	411.0	59.0
118	382.0	800.0
119	824.0	612.0
120	608.0	727.0
121	481.0	574.0
122	169.0	950.0
123	350.0	608.0
124	396.0	536.0
125	36.0	459.0
126	359.0	339.0
127	798.0	917.0
128	10.0	569.0
129	813.0	10.0
130	569.0	627.0
131	692.0	467.0
132	166.0	178.0
133	247.0	413.0
134	738.0	487.0
135	508.0	327.0
136	158.0	986.0
137	983.0	244.0
138	637.0	109.0
139	177.0	207.0
140	357.0	374.0
141	361.0	972.0
142	365.0	701.0
143	582.0	957.0
144	712.0	996.0
145	932.0	452.0
146	847.0	981.0
147	60.0	66.0
148	252.0	267.0
149	944.0	435.0
150	338.0	688.0
151	900.0	168.0
152	583.0	871.0
153	852.0	59.0
154	921.0	72.0
155	845.0	534.0
156	387.0	253.0
157	812.0	354.0
158	5.0	404.0
159	590.0	575.0
160	930.0	128.0
161	184.0	742.0
162	832.0	466.0
163	285.0	346.0
164	548.0	976.0
165	32.0	531.0
166	966.0	58.0
167	31.0	40.0
168	162.0	539.0
169	621.0	425.0
170	802.0	495.0
171	385.0	493.0
172	769.0	329.0
173	921.0	15.0
174	64.0	106.0
175	854.0	678.0
176	943.0	122.0
177	103.0	285.0
178	304.0	739.0
179	398.0	212.0
180	335.0	459.0
181	43.0	108.0
182	400.0	255.0
183	935.0	851.0
184	179.0	147.0
185	822.0	749.0
186	60.0	32.0
187	829.0	992.0
188	783.0	760.0
189	218.0	360.0
190	321.0	463.0
191	403.0	172.0
192	32.0	134.0
193	218.0	490.0
194	44.0	456.0
195	430.0	570.0
196	896.0	875.0
197	509.0	572.0
198	424.0	936.0
199	639.0	505.0
200	914.0	852.0
201	984.0	435.0
202	479.0	341.0
203	207.0	937.0
204	709.0	700.0
205	235.0	795.0
206	557.0	130.0
207	270.0	964.0
208	482.0	320.0
209	60.0	761.0
210	836.0	272.0
211	413.0	327.0
212	509.0	379.0
213	961.0	329.0
214	819.0	754.0
215	176.0	910.0
216	648.0	809.0
217	640.0	892.0
218	838.0	79.0
219	552.0	232.0
DEMAND_SECTION
1	0
2	1
3	1
4	1
5	1
6	1
7	1
8	1
9	1
10	1
11	1
12	1
13	1
14	1
15	1
16	1
17	1
18	1
19	1
20	1
21	1
22	1
23	1
24	1
25	1
26	1
27	1
28	1
29	1
30	1
31	1
32	1
33	1
34	1
35	1
36	1
37	1
38	1
39	1
40	1
41	1
42	1
43	1
44	1
45	1
46	1
47	1
48	1
49	1
50	1
51	1
52	1
53	1
54	1
55	1
56	1
57	1
58	1
59	1
60	1
61	1
62	1
63	1
64	1
65	1
66	1
67	1
68	1
69	1
70	1
71	1
72	1
73	1
74	1
75	1
76	1
77	1
78	1
79	1
80	1
81	1
82	1
83	1
84	1
85	1
86	1
87	1
88	1
89	1
90	1
91	1
92	1
93	1
94	1
95	1
96	1
97	1
98	1
99	1
100	1
101	1
102	1
103	1
104	1
105	1
106	1
107	1
108	1
109	1
110	1
111	1
112	1
113	1
114	1
115	1
116	1
117	1
118	1
119	1
120	1
121	1
122	1
123	1
124	1
125	1
126	1
127	1
128	1
129	1
130	1
131	1
132	1
133	1
134	1
135	1
136	1
137	1
138	1
139	1
140	1
141	1
142	1
143	1
144	1
145	1
146	1
147	1
148	1
149	1
150	1
151	1
152	1
153	1
154	1
155	1
156	1
157	1
158	1
159	1
160	1
161	1
162	1
163	1
164	1
165	1
166	1
167	1
168	1
169	1
170	1
171	1
172	1
173	1
174	1
175	1
176	1
177	1
178	1
179	1
180	1
181	1
182	1
183	1
184	1
185	1
186	1
187	1
188	1
189	1
190	1
191	1
192	1
193	1
194	1
195	1
196	1
197	1
198	1
199	1
200	1
201	1
202	1
203	1
204	1
205	1
206	1
207	1
208	1
209	1
210	1
211	1
212	1
213	1
214	1
215	1
216	1
217	1
218	1
219	1
DEPOT_SECTION
1
-1
EOF
