experiment/data/hgs-res/Vrp-Set-X-n219/Vrp-Set-X-n219-hgs/0.hgs1.tour
Route #1: 128 96 53
Route #2: 172 165 153
Route #3: 93 3 112
Route #4: 152 31 217
Route #5: 159 175 37
Route #6: 76 36 88
Route #7: 12 70 25
Route #8: 74 137 205
Route #9: 150 40 15
Route #10: 102 22 57
Route #11: 83 116 71
Route #12: 38 136 69
Route #13: 48 41 20
Route #14: 209 72 2
Route #15: 99 78 18
Route #16: 171 58 156
Route #17: 33 200 212
Route #18: 56 218 13
Route #19: 65 148 144
Route #20: 190 178 155
Route #21: 161 169 43
Route #22: 130 133 34
Route #23: 154 29 23
Route #24: 168 92 7
Route #25: 201 134 207
Route #26: 91 89 211
Route #27: 11 14 80
Route #28: 125 210 181
Route #29: 185 166
Route #30: 17 104 118
Route #31: 158 198 59
Route #32: 184 73 174
Route #33: 182 199 195
Route #34: 213 19 187
Route #35: 183 138 131
Route #36: 28 100 126
Route #37: 129 21 203
Route #38: 63 42 44
Route #39: 147 162 85
Route #40: 94 186 145
Route #41: 196 120 194
Route #42: 119 8 215
Route #43: 139 179 189
Route #44: 111 45 10
Route #45: 105 68 143
Route #46: 170 123 47
Route #47: 146 173 30
Route #48: 216 103 50
Route #49: 108 62 132
Route #50: 151 54 55
Route #51: 82 98 141
Route #52: 26 122 27
Route #53: 101 163 142
Route #54: 117 49 24
Route #55: 176 5 9
Route #56: 149 77 177
Route #57: 106 197 86
Route #58: 39 32 188
Route #59: 140 60 35
Route #60: 110 107 109
Route #61: 16 167 192
Route #62: 6 206 67
Route #63: 113 204 81
Route #64: 191 4 180
Route #65: 61 52 95
Route #66: 66 160 84
Route #67: 214 79 202
Route #68: 114 46 75
Route #69: 90 135 121
Route #70: 157 124 193
Route #71: 127 64 51
Route #72: 208 1 97
Route #73: 87 115 164
Cost 117613
